
Gurobi 10.0.2 (win64) logging started Fri Jun 21 03:40:51 2024

Set parameter LogFile to value "log/log_difficulty1_MNL_DESKTOP-S7OVCUR_9_28.txt"
Gurobi Optimizer version 10.0.2 build v10.0.2rc0 (win64)

CPU model: Intel(R) Core(TM) i7-10510U CPU @ 1.80GHz, instruction set [SSE2|AVX|AVX2]
Thread count: 4 physical cores, 8 logical processors, using up to 8 threads

Optimize a model with 2020 rows, 676 columns and 4612 nonzeros
Model fingerprint: 0x8a2e3b11
Variable types: 364 continuous, 312 integer (312 binary)
Coefficient statistics:
  Matrix range     [7e-04, 2e+03]
  Objective range  [1e+02, 6e+02]
  Bounds range     [1e+00, 1e+00]
  RHS range        [1e+00, 1e+00]
Found heuristic solution: objective -0.0000000
Presolve removed 224 rows and 104 columns
Presolve time: 0.04s
Presolved: 1796 rows, 572 columns, 4223 nonzeros
Found heuristic solution: objective 2094.6436629
Variable types: 308 continuous, 264 integer (264 binary)

Root relaxation: objective 1.498913e+04, 455 iterations, 0.00 seconds (0.00 work units)

    Nodes    |    Current Node    |     Objective Bounds      |     Work
 Expl Unexpl |  Obj  Depth IntInf | Incumbent    BestBd   Gap | It/Node Time

     0     0 14989.1341    0  166 2094.64366 14989.1341   616%     -    0s
H    0     0                    8631.0079818 14989.1341  73.7%     -    0s
H    0     0                    9226.4014491 14989.1341  62.5%     -    0s
H    0     0                    9473.4746743 14887.3992  57.1%     -    0s
H    0     0                    13086.781819 14294.7704  9.23%     -    0s
     0     0 14294.7704    0  174 13086.7818 14294.7704  9.23%     -    0s
     0     0 14291.1721    0  174 13086.7818 14291.1721  9.20%     -    0s
     0     0 14290.6924    0  177 13086.7818 14290.6924  9.20%     -    0s
     0     0 14290.6924    0  177 13086.7818 14290.6924  9.20%     -    0s
     0     0 14038.4315    0  181 13086.7818 14038.4315  7.27%     -    0s
H    0     0                    13165.741439 14010.6704  6.42%     -    0s
     0     0 14010.6704    0  185 13165.7414 14010.6704  6.42%     -    0s
     0     0 14009.4440    0  189 13165.7414 14009.4440  6.41%     -    0s
H    0     0                    13601.347331 14009.4440  3.00%     -    0s
     0     0 14009.4440    0  187 13601.3473 14009.4440  3.00%     -    0s
H    0     0                    13653.828763 13903.2376  1.83%     -    0s
H    0     0                    13678.247421 13903.2376  1.64%     -    0s
     0     0 13903.2376    0  175 13678.2474 13903.2376  1.64%     -    0s
     0     0 13894.8269    0  172 13678.2474 13894.8269  1.58%     -    0s
     0     0 13893.5604    0  169 13678.2474 13893.5604  1.57%     -    0s
     0     0 13893.1076    0  171 13678.2474 13893.1076  1.57%     -    0s
     0     0 13893.0872    0  173 13678.2474 13893.0872  1.57%     -    0s
H    0     0                    13699.233615 13893.0872  1.42%     -    0s
     0     0 13862.8424    0  186 13699.2336 13862.8424  1.19%     -    0s
H    0     0                    13700.024223 13862.8424  1.19%     -    0s
     0     0 13853.8131    0  189 13700.0242 13853.8131  1.12%     -    0s
     0     0 13848.5646    0  194 13700.0242 13848.5646  1.08%     -    0s
     0     0 13848.2415    0  195 13700.0242 13848.2415  1.08%     -    0s
H    0     0                    13768.533335 13848.2415  0.58%     -    0s
     0     0 13840.4444    0  166 13768.5333 13840.4444  0.52%     -    0s
     0     0 13839.4852    0  166 13768.5333 13839.4852  0.52%     -    0s
     0     0 13839.4852    0  166 13768.5333 13839.4852  0.52%     -    0s
     0     0 13832.7304    0  166 13768.5333 13832.7304  0.47%     -    0s
H    0     0                    13775.086574 13832.7304  0.42%     -    0s
     0     0 13827.8466    0  168 13775.0866 13827.8466  0.38%     -    0s
     0     0 13827.5036    0  169 13775.0866 13827.5036  0.38%     -    0s
     0     0 13826.7402    0  166 13775.0866 13826.7402  0.37%     -    0s
     0     0 13825.4634    0  172 13775.0866 13825.4634  0.37%     -    0s
     0     0 13824.7315    0  168 13775.0866 13824.7315  0.36%     -    0s
     0     0 13824.5954    0  169 13775.0866 13824.5954  0.36%     -    0s
     0     0 13818.8930    0  154 13775.0866 13818.8930  0.32%     -    0s
     0     0 13818.8930    0  153 13775.0866 13818.8930  0.32%     -    0s
     0     0 13818.1695    0  169 13775.0866 13818.1695  0.31%     -    0s
     0     0 13817.6908    0  148 13775.0866 13817.6908  0.31%     -    0s
     0     0 13816.7932    0  149 13775.0866 13816.7932  0.30%     -    0s
     0     0 13816.7770    0  150 13775.0866 13816.7770  0.30%     -    0s
     0     0 13816.7770    0  150 13775.0866 13816.7770  0.30%     -    0s
     0     0 13816.7768    0  146 13775.0866 13816.7768  0.30%     -    0s
H    0     0                    13814.995056 13816.7768  0.01%     -    0s
     0     0 13816.7768    0   50 13814.9951 13816.7768  0.01%     -    0s
H    0     0                    13814.995274 13815.0048  0.00%     -    0s

Cutting planes:
  Gomory: 6
  Cover: 2
  Implied bound: 29
  Clique: 6
  MIR: 22
  Flow cover: 42
  RLT: 7
  Relax-and-lift: 4
  BQP: 2

Explored 1 nodes (2758 simplex iterations) in 0.97 seconds (0.33 work units)
Thread count was 8 (of 8 available processors)

Solution count 10: 13815 13775.1 13768.5 ... 13086.8

Optimal solution found (tolerance 1.00e-04)
Best objective 1.381499527365e+04, best bound 1.381500476628e+04, gap 0.0001%
